p cnf 100 240
-98 -14 -36 0
74 -30 -89 0
98 86 -5 0
-28 -17 -55 0
22 93 43 0
64 8 90 0
-70 40 59 0
-83 -27 67 0
75 -36 -34 0
-14 65 -55 0
52 36 -86 0
-22 -78 -56 0
96 77 -71 0
-33 80 -69 0
-2 -4 -60 0
53 -10 -32 0
-6 -39 -55 0
-84 -65 2 0
-28 -77 35 0
9 -69 7 0
2 -47 81 0
23 25 98 0
-70 71 -13 0
-94 31 -40 0
-91 -19 -64 0
24 5 94 0
-42 -32 -91 0
13 93 -49 0
-62 29 -14 0
41 -50 58 0
-8 51 -31 0
-44 -60 -15 0
53 90 -59 0
30 12 88 0
98 97 -62 0
-57 92 25 0
91 71 24 0
-68 -43 -65 0
-57 51 -98 0
-50 44 -12 0
54 -88 -75 0
79 74 -80 0
-45 -13 46 0
-15 42 49 0
-95 67 65 0
-46 -80 -45 0
5 73 11 0
-85 75 -17 0
29 7 18 0
55 38 -33 0
-67 15 3 0
68 14 -11 0
21 -6 -12 0
56 -45 49 0
29 -89 56 0
7 44 64 0
83 -46 -32 0
77 16 -39 0
23 -50 72 0
-53 10 -47 0
94 21 57 0
-57 13 7 0
95 -38 -74 0
84 81 76 0
3 17 62 0
61 24 2 0
34 44 45 0
1 26 -8 0
-95 -78 26 0
-97 -93 -26 0
75 -62 -15 0
90 15 -47 0
-52 -14 -13 0
-88 -71 37 0
67 -52 4 0
-30 -83 52 0
26 -95 58 0
-96 59 15 0
-33 16 -48 0
52 -24 -42 0
52 78 59 0
22 29 36 0
27 77 -91 0
14 11 87 0
-23 -41 -84 0
77 -24 -4 0
2 -68 -90 0
-73 -23 -36 0
-76 -27 88 0
-61 30 -72 0
-84 5 3 0
67 30 81 0
83 15 14 0
37 57 -72 0
52 8 -10 0
-56 -81 33 0
-64 -62 -89 0
-90 61 -69 0
1 -48 -34 0
26 60 85 0
4 92 95 0
81 83 79 0
70 -18 52 0
-61 90 -34 0
-77 24 67 0
-51 50 -66 0
-72 28 79 0
61 -52 79 0
-55 38 30 0
57 13 -31 0
-88 -53 97 0
32 12 54 0
100 -73 70 0
-15 87 100 0
39 -92 46 0
4 -30 -5 0
46 -97 61 0
30 63 -56 0
-11 8 2 0
-68 -18 -38 0
-88 82 49 0
20 99 -100 0
45 58 -36 0
-11 93 -66 0
-78 70 -52 0
76 -53 52 0
-74 1 -33 0
89 -32 51 0
51 73 6 0
-79 -16 -96 0
18 -21 52 0
94 -64 -32 0
-64 -54 30 0
83 70 -26 0
-21 -88 -51 0
78 -92 54 0
23 58 92 0
32 -49 94 0
73 93 -38 0
-28 65 60 0
-24 -100 45 0
11 36 51 0
99 86 -70 0
-18 84 97 0
94 31 84 0
-16 -58 -90 0
5 41 4 0
-2 95 -60 0
-80 22 82 0
22 -66 82 0
-19 -79 37 0
14 -56 90 0
-21 49 -61 0
39 25 -44 0
23 -75 -100 0
9 -19 29 0
41 -6 -2 0
96 -24 78 0
-72 -62 17 0
-97 66 33 0
-50 -17 -90 0
-17 44 21 0
-34 45 66 0
-31 89 67 0
61 77 33 0
14 37 -44 0
-69 15 -95 0
25 90 -77 0
62 -41 -44 0
27 -28 44 0
-54 -2 77 0
11 14 -97 0
48 -98 10 0
-66 30 53 0
-13 -65 -8 0
83 86 78 0
-15 64 -17 0
11 90 72 0
73 30 95 0
81 -38 -17 0
27 -19 -100 0
-30 94 15 0
-54 11 73 0
-34 -67 44 0
-48 39 14 0
-74 26 -94 0
-62 43 80 0
-77 87 98 0
-1 8 -88 0
-69 -42 -28 0
68 -55 97 0
9 89 23 0
53 -85 -12 0
84 32 15 0
98 -77 73 0
-68 59 23 0
-25 -29 -46 0
21 83 53 0
19 -43 -81 0
-35 -63 -94 0
x -1 -3 -6 -9 11 12 -16 -17 -21 22 23 -24 -25 26 27 -35 -36 39 -40 -41 42 45 -47 -48 50 54 -57 59 -61 64 65 -70 -71 -73 77 78 -82 -86 -87 90 -91 92 -93 -94 95 97 98 -99 0
x 2 4 6 7 -8 9 -11 -12 -14 -16 -17 -18 19 20 -21 23 24 25 -29 31 32 35 38 39 -43 -49 -50 51 -54 -56 -58 -59 61 -62 -69 73 77 78 -80 82 84 85 88 89 91 -92 94 -95 96 -97 99 0
x 2 -3 5 -14 -15 16 -17 18 20 -21 22 24 25 -27 29 -30 32 -35 37 -38 40 -41 -42 43 -49 50 51 -58 61 -63 67 69 -71 73 -78 82 83 -84 -86 91 -92 -93 94 97 99 0
x 2 4 -5 -10 12 -13 14 -16 -19 -20 -21 -23 -24 25 26 27 -31 32 33 -34 36 37 38 -41 -42 -43 -45 -53 56 -57 58 61 65 67 -68 -71 -72 -74 -75 76 -79 -80 81 -84 86 -91 92 94 97 0
x 1 -2 -4 -5 8 -9 -12 -13 14 -16 -18 -19 21 22 -23 -28 30 -31 -34 36 38 -40 -42 -47 48 49 -52 57 58 60 -62 -66 67 68 -72 76 77 -78 80 -81 83 -84 -85 -86 88 90 -91 -94 97 0
x 2 3 -5 6 7 -8 -9 10 -11 12 13 -15 -16 17 -20 -21 22 24 25 26 -28 29 30 -32 34 36 37 38 39 42 43 -48 52 53 -54 55 56 58 -59 -63 64 -65 -68 -69 -72 -73 75 77 79 -81 -83 84 86 89 -90 -94 -96 -98 -99 0
x -1 -2 -6 -10 -13 18 -20 -21 -22 23 -25 27 30 32 33 34 35 -36 37 45 47 51 -52 -53 54 55 -57 60 61 -62 65 67 -69 -70 -72 -73 78 -80 -81 82 83 -88 -89 90 -91 92 -95 99 0
x 1 -2 3 4 -10 -11 14 -15 -16 -19 21 -23 25 -26 -27 -28 -29 -30 -31 -33 -36 37 -39 42 -44 -46 -47 49 50 53 -54 55 60 62 63 -64 66 -68 70 -74 -75 -76 78 82 84 85 -87 -88 89 -93 -95 -97 0
x 4 -7 -8 -10 -11 12 -16 -19 21 22 24 27 -28 -30 31 32 34 36 37 42 45 -47 -48 -50 51 52 -53 55 -56 59 -62 63 -65 -66 68 -74 80 81 -83 -85 -86 90 91 92 -93 94 95 97 98 -99 0
x -3 4 5 -6 -8 -9 12 -14 16 19 -20 23 -26 -28 -29 32 -33 -34 -38 -40 -41 45 46 47 51 53 -58 61 62 65 67 69 -71 -73 74 80 -91 92 -95 -96 -98 0
x -1 -2 -4 -5 -7 -8 9 10 -11 -13 14 15 16 -17 18 -19 20 -23 24 25 26 -32 34 -36 38 39 40 41 42 43 -45 -49 -50 52 -58 60 -61 -64 67 -70 -71 -72 -74 75 76 -79 80 -82 -83 -84 -85 -97 -98 -100 0
x -1 -3 8 -9 -10 -11 -14 -17 22 23 25 26 28 -29 -31 -35 -38 -40 -41 45 46 48 -49 56 57 58 59 60 -63 -65 67 68 69 -72 -73 74 -75 -76 -77 78 79 -81 -82 84 85 -88 91 92 -94 -95 -97 98 99 0
x 1 4 -6 -8 10 11 12 -13 -16 -17 -19 -20 -21 -23 24 -26 27 28 -31 -32 -33 35 41 43 -45 -47 -48 -51 54 55 57 58 -59 -60 61 63 66 67 -68 -71 -76 77 78 -79 -81 -83 84 86 91 96 -98 0
x 2 -5 6 7 -10 -15 -22 -23 -24 -30 32 -33 35 -36 -37 38 40 41 -43 -44 -49 51 -52 -53 54 -55 56 -63 69 70 -71 72 73 75 76 -80 82 83 84 85 87 88 90 -92 94 98 0
x -1 -3 -4 -6 7 8 9 13 14 15 17 -18 22 -23 -29 -32 -33 34 -39 -40 -41 45 46 47 49 -52 -53 -56 59 -60 62 -65 66 -67 69 -70 -71 72 -74 -75 -78 79 -80 81 -86 -87 88 -89 -91 -93 95 96 97 98 100 0
x 1 2 -3 5 7 8 -9 -10 -11 -13 14 -15 -16 17 19 20 -24 -25 29 -30 31 -32 -33 34 35 -37 38 -39 41 45 -50 -51 52 -54 55 -66 71 72 -73 74 -75 -77 -80 83 85 86 -87 95 -99 0
x -1 -5 6 7 -10 11 -13 14 -16 19 -20 -22 -23 -26 -28 32 -38 -39 40 41 -42 43 44 -48 49 -50 -51 52 -53 57 58 -59 -61 63 -65 -67 -68 -69 -71 -72 -74 75 -81 82 -83 84 85 86 -89 91 -92 96 -99 0
x -1 -2 -7 9 11 12 -13 -14 -17 -19 -21 23 -24 -25 -26 27 -28 -29 31 -33 35 -36 38 -39 40 44 45 -49 -51 52 53 -54 56 57 -58 59 62 63 64 65 -66 -67 68 -70 76 -77 79 80 -81 82 83 84 87 -88 90 -92 95 97 98 -99 -100 0
x -2 3 -5 -6 9 10 12 -13 14 17 20 23 25 -26 -29 30 31 -32 -34 35 -37 -38 39 -41 -43 -47 -50 -52 -53 -56 57 -58 -61 65 -70 71 -73 74 76 -79 84 -85 -86 90 -92 94 -97 98 99 0
x 1 -2 4 5 -7 9 11 14 17 -18 21 22 23 -25 27 -29 30 -32 -35 36 38 -39 41 -42 -43 44 49 52 55 58 59 -60 -62 63 64 66 -67 69 71 -72 -73 74 -77 80 -82 -83 84 85 -87 -88 -92 -94 98 -99 100 0
x 2 7 -9 11 -13 14 16 18 19 -23 24 26 28 -32 34 -38 43 44 -45 47 48 49 50 -51 53 54 -56 -57 -62 -68 -71 74 -75 -77 -78 79 81 84 87 -88 -89 91 92 -95 -96 97 -100 0
x -2 -3 6 7 9 10 12 14 16 17 20 22 23 25 -26 -27 31 -32 -33 34 -35 -42 -44 -45 46 -49 -50 51 55 -59 -62 -63 -64 -66 68 69 -70 -72 73 74 76 -77 -81 82 83 85 89 90 -91 -94 -95 96 0
x 7 -11 12 14 15 16 19 24 -25 -27 28 31 32 -33 -35 -36 38 -42 44 45 47 -49 52 -53 -55 -56 -58 -59 63 71 72 73 -74 -78 80 82 -87 -88 -93 95 -97 0
x -3 4 6 -9 13 -14 -16 18 21 -22 -23 24 -26 -28 31 32 33 -35 37 38 41 -44 -46 47 -48 49 -50 -51 -52 54 -55 -57 58 -59 61 65 -66 69 -71 -72 -73 -74 77 78 80 -81 -82 -84 86 -87 -88 -89 91 93 -96 -97 98 99 0
x -3 -5 -6 -8 9 11 13 15 17 -19 -23 -24 -25 -26 29 30 31 -33 -34 36 -38 -39 -40 -41 -42 -44 -45 53 56 58 59 -60 61 62 63 68 70 -72 -75 -76 -77 79 -80 85 88 89 91 -94 95 -97 99 0
x -1 2 -4 -5 -6 -7 9 -10 11 -12 13 15 16 18 -19 -20 22 -24 -25 -26 -31 -32 -37 -40 41 -42 -47 49 -51 -52 -53 56 -59 60 -61 -62 -63 -64 -67 -68 70 -72 74 -75 76 78 80 81 -83 84 85 88 -89 -90 92 -98 -99 0
x 6 -8 12 13 -14 15 16 21 -22 25 -27 28 29 32 -33 34 -36 -38 43 -46 -48 49 50 -51 -52 -55 -63 66 68 71 -73 74 75 -76 -78 -80 83 -84 86 87 -88 -90 91 93 -95 -96 97 98 99 100 0
x 1 2 -3 14 -15 16 17 -19 24 25 26 27 30 34 -36 -37 38 -40 41 42 -43 45 46 49 -51 -55 56 60 62 -63 65 66 68 -69 70 71 -72 73 75 77 78 83 84 -86 -87 -88 -91 -94 96 98 0
x -1 2 4 5 7 11 12 13 -15 -17 -18 20 22 -23 24 -28 29 33 -34 -36 39 41 -42 43 46 51 -52 53 -54 -56 57 -58 -59 -60 -64 -65 67 68 -71 72 -73 75 -76 -77 -78 79 -82 -83 -87 88 -89 90 94 -95 98 99 0
x 3 -4 -6 -8 -10 -11 13 -14 17 18 22 -24 26 27 -30 31 32 33 -34 35 36 38 39 40 -43 -44 46 -47 -49 50 51 54 -55 -56 57 -58 59 64 66 67 -72 -73 76 78 -79 81 -82 83 -87 88 95 98 0
x -2 -3 -6 7 8 9 -11 13 15 16 17 19 20 -21 25 -27 -28 32 -35 -39 40 42 44 -45 -49 50 53 -54 -55 -56 61 -62 -63 -64 65 -66 -67 -69 -70 71 -72 -78 81 83 -85 86 88 89 90 -92 93 -97 -100 0
x -2 3 4 6 -9 -11 13 14 16 -17 -22 23 -24 -25 27 -28 30 -31 -32 -33 -34 37 39 41 -42 50 -51 54 -59 60 62 -63 -64 66 68 69 -76 77 79 80 -81 -82 -83 84 85 87 92 -93 94 -96 0
x -2 4 5 -7 -8 9 11 -12 15 18 -21 -22 24 27 28 -30 32 -35 -42 48 -50 -54 -55 -57 -58 59 -61 62 68 -71 -72 -77 81 -82 -85 -86 89 90 -91 -93 94 95 96 97 98 0
x -1 -2 -4 5 6 11 -13 -15 -16 -17 -18 19 23 25 26 27 28 -31 -32 34 -36 -37 39 44 45 -46 49 -53 61 63 -68 -70 -71 -73 74 80 81 82 -83 -84 85 -86 -87 -88 -91 -93 -94 95 96 99 0
x -5 6 -8 9 10 -13 -17 19 21 -22 -24 25 -26 27 30 -31 -37 -41 -42 48 51 52 -54 -56 -57 58 -65 70 71 73 74 -77 -78 83 84 -87 -88 -89 92 93 -96 -97 -100 0
x -1 -6 -8 11 -20 -21 -22 23 24 25 -26 27 -28 29 30 -32 33 36 40 41 -44 45 -48 -53 -55 -56 60 -62 64 65 66 69 -71 -72 -74 -75 -77 -78 -79 80 82 83 87 -88 -90 -92 -94 -98 100 0
x -1 4 5 6 12 14 15 17 18 19 21 -22 23 -25 -27 -30 32 -33 36 37 -38 40 -47 48 -49 51 -55 -58 59 -61 62 63 64 -65 -66 -69 70 71 -79 -81 83 84 85 86 87 89 -90 -92 -93 -96 98 100 0
x -1 2 -4 5 6 7 -8 10 -12 -14 -15 16 18 19 -20 -21 22 24 -25 -30 35 -40 41 -43 46 -47 -48 57 -58 60 -65 -68 69 70 -71 74 75 78 -82 -85 -87 88 89 -92 93 94 -96 97 98 -100 0
x -1 -3 5 -8 12 14 15 -19 20 -21 22 -24 26 -28 29 30 32 33 -36 -37 39 46 47 48 -51 -52 -53 -56 58 61 -62 -64 66 -67 -69 70 72 -73 75 79 83 85 -87 88 89 91 -92 -94 97 -100 0
x -1 -5 6 -7 8 -9 10 11 12 -16 19 -20 -23 26 -27 29 32 -33 35 -36 37 -39 -42 -46 48 -49 -51 52 -53 -55 59 60 63 -64 -65 67 -70 -71 -74 -75 77 -79 -81 83 -84 85 -87 89 -91 -93 -94 95 -97 0
